SCIP version 5.0.0 [precision: 8 byte] [memory: block] [mode: optimized] [LP solver: NONE] [GitHash: 3bbd232]
Copyright (C) 2002-2017 Konrad-Zuse-Zentrum fuer Informationstechnik Berlin (ZIB)

External codes: 
  Readline EditLine w  GNU library for command line editing (gnu.org/s/readline)
  CppAD 20160000.1     Algorithmic Differentiation of C++ algorithms developed by B. Bell (www.coin-or.org/CppAD)
  ZLIB 1.2.5           General purpose compression library by J. Gailly and M. Adler (zlib.net)
  GMP 6.1.2            GNU Multiple Precision Arithmetic Library developed by T. Granlund (gmplib.org)

user parameter file <scip.set> not found - using default parameters

read problem <../../Split_data/output/biodeg/5/1_sample_biodeg.logreg>
============

File name	:	../../Split_data/output/biodeg/5/1_sample_biodeg.logreg
Problem name 	:	1_sample_biodeg
Number of data	:	844
Number of var	:	41
The given data has linear independence

[dim=1] time: 0.038729
[dim=2] time: 0.07707
[dim=3] time: 0.118038
[dim=4] time: 0.15113
[dim=5] time: 0.18178
[dim=6] time: 0.209899
[dim=7] time: 0.238358
[dim=8] time: 0.268783
[dim=9] time: 0.288444
[dim=10] time: 0.308381
[dim=11] time: 0.329272
[dim=12] time: 0.349902
[dim=13] time: 0.368749
[dim=14] time: 0.388306
[dim=15] time: 0.40918
[dim=16] time: 0.43038
[dim=17] time: 0.45095
[dim=18] time: 0.470782
[dim=19] time: 0.498546
[dim=20] time: 0.518491
[dim=21] time: 0.537475
[dim=22] time: 0.557429
[dim=23] time: 0.575986
[dim=24] time: 0.592604
[dim=25] Time of forward = 0.608252sec.
AIC: 517.458
k: 24

[dim=41] time: 0.145847
[dim=40] time: 0.19822
[dim=39] time: 0.254035
[dim=38] time: 0.308717
[dim=37] time: 0.35439
[dim=36] time: 0.399529
[dim=35] time: 0.445091
[dim=34] time: 0.496854
[dim=33] time: 0.617005
[dim=32] time: 0.667762
[dim=31] time: 0.703925
[dim=30] time: 0.736129
[dim=29] time: 0.766419
[dim=28] time: 0.794695
[dim=27] time: 0.829082
[dim=26] time: 0.878557
[dim=25] time: 0.910555
[dim=24] time: 0.933618
[dim=23] time: 0.957214
[dim=22] Time of backward = 0.979419sec.
AIC: 516.121
k: 23
